100
1000
199
199
198
198
197
197
196
196
196
196
196
196
195
195
195
194
193
193
193
193
193
192
191
191
191
191
190
190
189
188
187
186
186
186
185
185
185
185
184
183
183
182
182
182
181
179
178
177
177
177
177
176
176
175
174
174
174
172
172
172
172
171
170
169
169
168
168
168
168
168
166
166
165
165
165
164
163
163
163
162
162
161
161
161
159
159
159
157
157
156
155
153
153
153
152
151
150
150
150
150
